objective value:                                10931
t_x_0                                               1 	(obj:5)
t_x_1                                               1 	(obj:22)
t_x_4                                               1 	(obj:23)
t_x_7                                               1 	(obj:20)
t_x_17                                              1 	(obj:25)
t_x_18                                              1 	(obj:21)
t_x_20                                              1 	(obj:29)
t_x_23                                              1 	(obj:24)
t_x_24                                              1 	(obj:48)
t_x_27                                              1 	(obj:30)
t_x_40                                              1 	(obj:5)
t_x_42                                              1 	(obj:54)
t_x_47                                              1 	(obj:2)
t_x_49                                              1 	(obj:5)
t_x_53                                              1 	(obj:36)
t_x_60                                              1 	(obj:6)
t_x_65                                              1 	(obj:16)
t_x_67                                              1 	(obj:16)
t_x_70                                              1 	(obj:0)
t_x_74                                              1 	(obj:8)
t_x_75                                              1 	(obj:1)
t_x_76                                              1 	(obj:15)
t_x_79                                              1 	(obj:0)
t_x_80                                              1 	(obj:19)
t_x_82                                              1 	(obj:24)
t_x_85                                              1 	(obj:53)
t_x_87                                              1 	(obj:12)
t_x_91                                              1 	(obj:41)
t_x_93                                              1 	(obj:36)
t_x_98                                              1 	(obj:18)
t_x_105                                             1 	(obj:2)
t_x_107                                             1 	(obj:22)
t_x_109                                             1 	(obj:7)
t_x_110                                             1 	(obj:18)
t_x_111                                             1 	(obj:23)
t_x_113                                             1 	(obj:1)
t_x_114                                             1 	(obj:4)
t_x_116                                             1 	(obj:15)
t_x_117                                             1 	(obj:12)
t_x_121                                             1 	(obj:13)
t_x_124                                             1 	(obj:0)
t_x_135                                             1 	(obj:15)
t_x_140                                             1 	(obj:31)
t_x_144                                             1 	(obj:28)
t_x_145                                             1 	(obj:12)
t_x_151                                             1 	(obj:14)
t_x_155                                             1 	(obj:18)
t_x_157                                             1 	(obj:70)
t_x_161                                             1 	(obj:38)
t_x_163                                             1 	(obj:16)
t_x_164                                             1 	(obj:3)
t_x_168                                             1 	(obj:32)
t_x_170                                             1 	(obj:24)
t_x_172                                             1 	(obj:7)
t_x_176                                             1 	(obj:10)
t_x_177                                             1 	(obj:15)
t_x_183                                             1 	(obj:11)
t_x_190                                             1 	(obj:48)
t_x_191                                             1 	(obj:12)
t_x_192                                             1 	(obj:14)
t_x_197                                             1 	(obj:16)
t_x_202                                             1 	(obj:15)
t_x_204                                             1 	(obj:14)
t_x_206                                             1 	(obj:31)
t_x_211                                             1 	(obj:8)
t_x_217                                             1 	(obj:9)
t_x_218                                             1 	(obj:9)
t_x_219                                             1 	(obj:4)
t_x_224                                             1 	(obj:0)
t_x_227                                             1 	(obj:80)
t_x_229                                             1 	(obj:10)
t_x_237                                             1 	(obj:38)
t_x_239                                             1 	(obj:19)
t_x_240                                             1 	(obj:27)
t_x_242                                             1 	(obj:2)
t_x_245                                             1 	(obj:9)
t_x_247                                             1 	(obj:18)
t_x_252                                             1 	(obj:11)
t_x_257                                             1 	(obj:2)
t_x_261                                             1 	(obj:1)
t_x_270                                             1 	(obj:8)
t_x_274                                             1 	(obj:3)
t_x_278                                             1 	(obj:39)
t_x_279                                             1 	(obj:19)
t_x_286                                             1 	(obj:17)
t_x_287                                             1 	(obj:20)
t_x_289                                             1 	(obj:30)
t_x_293                                             1 	(obj:1)
t_x_294                                             1 	(obj:11)
t_x_295                                             1 	(obj:25)
t_x_302                                             1 	(obj:10)
t_x_305                                             1 	(obj:23)
t_x_306                                             1 	(obj:27)
t_x_308                                             1 	(obj:6)
t_x_309                                             1 	(obj:10)
t_x_318                                             1 	(obj:17)
t_x_323                                             1 	(obj:15)
t_x_324                                             1 	(obj:16)
t_x_328                                             1 	(obj:0)
t_x_330                                             1 	(obj:16)
t_x_331                                             1 	(obj:24)
t_x_338                                             1 	(obj:16)
t_x_339                                             1 	(obj:9)
t_x_342                                             1 	(obj:22)
t_x_344                                             1 	(obj:8)
t_x_351                                             1 	(obj:9)
t_x_353                                             1 	(obj:20)
t_x_355                                             1 	(obj:21)
t_x_360                                             1 	(obj:6)
t_x_361                                             1 	(obj:24)
t_x_364                                             1 	(obj:19)
t_x_368                                             1 	(obj:6)
t_x_370                                             1 	(obj:5)
t_x_374                                             1 	(obj:8)
t_x_376                                             1 	(obj:53)
t_x_379                                             1 	(obj:27)
t_x_386                                             1 	(obj:34)
t_x_388                                             1 	(obj:30)
t_x_392                                             1 	(obj:32)
t_x_394                                             1 	(obj:12)
t_x_395                                             1 	(obj:19)
t_x_397                                             1 	(obj:28)
t_x_399                                             1 	(obj:24)
t_x_401                                             1 	(obj:46)
t_x_405                                             1 	(obj:23)
t_x_415                                             1 	(obj:12)
t_x_419                                             1 	(obj:1)
t_x_421                                             1 	(obj:0)
t_x_424                                             1 	(obj:0)
t_x_425                                             1 	(obj:27)
t_x_428                                             1 	(obj:5)
t_x_431                                             1 	(obj:29)
t_x_438                                             1 	(obj:8)
t_x_442                                             1 	(obj:6)
t_x_443                                             1 	(obj:16)
t_x_446                                             1 	(obj:2)
t_x_448                                             1 	(obj:20)
t_x_452                                             1 	(obj:4)
t_x_455                                             1 	(obj:7)
t_x_464                                             1 	(obj:1)
t_x_471                                             1 	(obj:3)
t_x_473                                             1 	(obj:14)
t_x_477                                             1 	(obj:34)
t_x_479                                             1 	(obj:2)
t_x_481                                             1 	(obj:1)
t_x_488                                             1 	(obj:26)
t_x_489                                             1 	(obj:28)
t_x_490                                             1 	(obj:18)
t_x_498                                             1 	(obj:44)
t_x_501                                             1 	(obj:17)
t_x_504                                             1 	(obj:2)
t_x_505                                             1 	(obj:20)
t_x_507                                             1 	(obj:15)
t_x_508                                             1 	(obj:22)
t_x_510                                             1 	(obj:4)
t_x_512                                             1 	(obj:12)
t_x_517                                             1 	(obj:5)
t_x_521                                             1 	(obj:12)
t_x_532                                             1 	(obj:30)
t_x_546                                             1 	(obj:39)
t_x_547                                             1 	(obj:3)
t_x_556                                             1 	(obj:8)
t_x_557                                             1 	(obj:10)
t_x_558                                             1 	(obj:34)
t_x_559                                             1 	(obj:32)
t_x_560                                             1 	(obj:30)
t_x_562                                             1 	(obj:2)
t_x_566                                             1 	(obj:17)
t_x_567                                             1 	(obj:74)
t_x_568                                             1 	(obj:20)
t_x_574                                             1 	(obj:31)
t_x_577                                             1 	(obj:34)
t_x_579                                             1 	(obj:17)
t_x_581                                             1 	(obj:35)
t_x_584                                             1 	(obj:0)
t_x_587                                             1 	(obj:8)
t_x_589                                             1 	(obj:6)
t_x_591                                             1 	(obj:28)
t_x_593                                             1 	(obj:12)
t_x_597                                             1 	(obj:10)
t_x_599                                             1 	(obj:15)
t_x_601                                             1 	(obj:24)
t_x_607                                             1 	(obj:5)
t_x_608                                             1 	(obj:19)
t_x_610                                             1 	(obj:10)
t_x_612                                             1 	(obj:15)
t_x_613                                             1 	(obj:37)
t_x_618                                             1 	(obj:23)
t_x_622                                             1 	(obj:10)
t_x_625                                             1 	(obj:29)
t_x_627                                             1 	(obj:22)
t_x_633                                             1 	(obj:14)
t_x_640                                             1 	(obj:7)
t_x_642                                             1 	(obj:27)
t_x_649                                             1 	(obj:12)
t_x_652                                             1 	(obj:31)
t_x_657                                             1 	(obj:33)
t_x_663                                             1 	(obj:45)
t_x_665                                             1 	(obj:12)
t_x_667                                             1 	(obj:1)
t_x_668                                             1 	(obj:0)
t_x_670                                             1 	(obj:49)
t_x_673                                             1 	(obj:29)
t_x_674                                             1 	(obj:1)
t_x_676                                             1 	(obj:0)
t_x_678                                             1 	(obj:5)
t_x_679                                             1 	(obj:10)
t_x_681                                             1 	(obj:70)
t_x_682                                             1 	(obj:3)
t_x_686                                             1 	(obj:12)
t_x_688                                             1 	(obj:35)
t_x_691                                             1 	(obj:72)
t_x_693                                             1 	(obj:7)
t_x_695                                             1 	(obj:6)
t_x_698                                             1 	(obj:2)
t_x_703                                             1 	(obj:51)
t_x_708                                             1 	(obj:61)
t_x_709                                             1 	(obj:21)
t_x_710                                             1 	(obj:15)
t_x_714                                             1 	(obj:5)
t_x_715                                             1 	(obj:17)
t_x_717                                             1 	(obj:27)
t_x_722                                             1 	(obj:30)
t_x_724                                             1 	(obj:13)
t_x_729                                             1 	(obj:31)
t_x_737                                             1 	(obj:4)
t_x_739                                             1 	(obj:2)
t_x_741                                             1 	(obj:19)
t_x_744                                             1 	(obj:23)
t_x_745                                             1 	(obj:10)
t_x_746                                             1 	(obj:68)
t_x_750                                             1 	(obj:3)
t_x_751                                             1 	(obj:12)
t_x_755                                             1 	(obj:14)
t_x_760                                             1 	(obj:2)
t_x_761                                             1 	(obj:20)
t_x_764                                             1 	(obj:29)
t_x_765                                             1 	(obj:20)
t_x_767                                             1 	(obj:5)
t_x_771                                             1 	(obj:0)
t_x_774                                             1 	(obj:20)
t_x_777                                             1 	(obj:20)
t_x_778                                             1 	(obj:15)
t_x_779                                             1 	(obj:8)
t_x_780                                             1 	(obj:3)
t_x_786                                             1 	(obj:0)
t_x_787                                             1 	(obj:5)
t_x_788                                             1 	(obj:18)
t_x_790                                             1 	(obj:9)
t_x_797                                             1 	(obj:41)
t_x_806                                             1 	(obj:12)
t_x_810                                             1 	(obj:13)
t_x_812                                             1 	(obj:33)
t_x_814                                             1 	(obj:2)
t_x_817                                             1 	(obj:30)
t_x_818                                             1 	(obj:13)
t_x_824                                             1 	(obj:1)
t_x_826                                             1 	(obj:12)
t_x_830                                             1 	(obj:20)
t_x_831                                             1 	(obj:29)
t_x_833                                             1 	(obj:21)
t_x_834                                             1 	(obj:46)
t_x_835                                             1 	(obj:17)
t_x_839                                             1 	(obj:53)
t_x_843                                             1 	(obj:19)
t_x_845                                             1 	(obj:11)
t_x_846                                             1 	(obj:24)
t_x_851                                             1 	(obj:8)
t_x_852                                             1 	(obj:38)
t_x_857                                             1 	(obj:10)
t_x_859                                             1 	(obj:18)
t_x_860                                             1 	(obj:5)
t_x_863                                             1 	(obj:55)
t_x_866                                             1 	(obj:20)
t_x_869                                             1 	(obj:10)
t_x_871                                             1 	(obj:52)
t_x_875                                             1 	(obj:9)
t_x_877                                             1 	(obj:27)
t_x_880                                             1 	(obj:3)
t_x_893                                             1 	(obj:2)
t_x_896                                             1 	(obj:1)
t_x_898                                             1 	(obj:17)
t_x_903                                             1 	(obj:70)
t_x_904                                             1 	(obj:3)
t_x_912                                             1 	(obj:20)
t_x_915                                             1 	(obj:26)
t_x_927                                             1 	(obj:8)
t_x_929                                             1 	(obj:45)
t_x_930                                             1 	(obj:32)
t_x_931                                             1 	(obj:37)
t_x_936                                             1 	(obj:15)
t_x_937                                             1 	(obj:37)
t_x_939                                             1 	(obj:40)
t_x_943                                             1 	(obj:23)
t_x_956                                             1 	(obj:16)
t_x_964                                             1 	(obj:20)
t_x_969                                             1 	(obj:12)
t_x_973                                             1 	(obj:11)
t_x_974                                             1 	(obj:29)
t_x_977                                             1 	(obj:6)
t_x_978                                             1 	(obj:6)
t_x_979                                             1 	(obj:18)
t_x_980                                             1 	(obj:6)
t_x_982                                             1 	(obj:4)
t_x_990                                             1 	(obj:5)
t_x_996                                             1 	(obj:1)
t_x_999                                             1 	(obj:12)
t_x_1002                                            1 	(obj:14)
t_x_1006                                            1 	(obj:25)
t_x_1011                                            1 	(obj:19)
t_x_1014                                            1 	(obj:7)
t_x_1015                                            1 	(obj:9)
t_x_1033                                            1 	(obj:4)
t_x_1034                                            1 	(obj:2)
t_x_1036                                            1 	(obj:12)
t_x_1037                                            1 	(obj:25)
t_x_1038                                            1 	(obj:12)
t_x_1039                                            1 	(obj:20)
t_x_1042                                            1 	(obj:30)
t_x_1043                                            1 	(obj:2)
t_x_1048                                            1 	(obj:26)
t_x_1054                                            1 	(obj:17)
t_x_1059                                            1 	(obj:6)
t_x_1065                                            1 	(obj:23)
t_x_1071                                            1 	(obj:8)
t_x_1072                                            1 	(obj:5)
t_x_1076                                            1 	(obj:88)
t_x_1079                                            1 	(obj:28)
t_x_1086                                            1 	(obj:32)
t_x_1089                                            1 	(obj:5)
t_x_1094                                            1 	(obj:2)
t_x_1095                                            1 	(obj:2)
t_x_1098                                            1 	(obj:16)
t_x_1102                                            1 	(obj:40)
t_x_1104                                            1 	(obj:5)
t_x_1106                                            1 	(obj:9)
t_x_1110                                            1 	(obj:28)
t_x_1112                                            1 	(obj:2)
t_x_1113                                            1 	(obj:21)
t_x_1115                                            1 	(obj:66)
t_x_1119                                            1 	(obj:25)
t_x_1120                                            1 	(obj:24)
t_x_1126                                            1 	(obj:33)
t_x_1129                                            1 	(obj:19)
t_x_1137                                            1 	(obj:12)
t_x_1139                                            1 	(obj:1)
t_x_1143                                            1 	(obj:7)
t_x_1144                                            1 	(obj:6)
t_x_1146                                            1 	(obj:20)
t_x_1147                                            1 	(obj:21)
t_x_1150                                            1 	(obj:37)
t_x_1152                                            1 	(obj:7)
t_x_1158                                            1 	(obj:6)
t_x_1160                                            1 	(obj:22)
t_x_1167                                            1 	(obj:16)
t_x_1173                                            1 	(obj:15)
t_x_1185                                            1 	(obj:21)
t_x_1189                                            1 	(obj:9)
t_x_1192                                            1 	(obj:25)
t_x_1201                                            1 	(obj:12)
t_x_1202                                            1 	(obj:42)
t_x_1203                                            1 	(obj:26)
t_x_1204                                            1 	(obj:3)
t_x_1205                                            1 	(obj:42)
t_x_1213                                            1 	(obj:12)
t_x_1214                                            1 	(obj:19)
t_x_1215                                            1 	(obj:13)
t_x_1228                                            1 	(obj:10)
t_x_1229                                            1 	(obj:11)
t_x_1232                                            1 	(obj:18)
t_x_1233                                            1 	(obj:2)
t_x_1235                                            1 	(obj:9)
t_x_1236                                            1 	(obj:7)
t_x_1241                                            1 	(obj:29)
t_x_1247                                            1 	(obj:11)
t_x_1250                                            1 	(obj:29)
t_x_1251                                            1 	(obj:14)
t_x_1254                                            1 	(obj:10)
t_x_1256                                            1 	(obj:16)
t_x_1259                                            1 	(obj:17)
t_x_1260                                            1 	(obj:27)
t_x_1263                                            1 	(obj:4)
t_x_1266                                            1 	(obj:7)
t_x_1270                                            1 	(obj:23)
t_x_1271                                            1 	(obj:15)
t_x_1275                                            1 	(obj:19)
t_x_1280                                            1 	(obj:8)
t_x_1283                                            1 	(obj:2)
t_x_1288                                            1 	(obj:52)
t_x_1290                                            1 	(obj:37)
t_x_1291                                            1 	(obj:26)
t_x_1310                                            1 	(obj:19)
t_x_1312                                            1 	(obj:3)
t_x_1314                                            1 	(obj:14)
t_x_1315                                            1 	(obj:1)
t_x_1316                                            1 	(obj:28)
t_x_1317                                            1 	(obj:14)
t_x_1321                                            1 	(obj:14)
t_x_1332                                            1 	(obj:15)
t_x_1334                                            1 	(obj:21)
t_x_1337                                            1 	(obj:54)
t_x_1338                                            1 	(obj:0)
t_x_1339                                            1 	(obj:18)
t_x_1341                                            1 	(obj:4)
t_x_1342                                            1 	(obj:15)
t_x_1343                                            1 	(obj:27)
t_x_1344                                            1 	(obj:35)
t_x_1350                                            1 	(obj:37)
t_x_1355                                            1 	(obj:23)
t_x_1357                                            1 	(obj:19)
t_x_1363                                            1 	(obj:24)
t_x_1365                                            1 	(obj:2)
t_x_1366                                            1 	(obj:3)
t_x_1367                                            1 	(obj:9)
t_x_1368                                            1 	(obj:10)
t_x_1375                                            1 	(obj:9)
t_x_1379                                            1 	(obj:52)
t_x_1381                                            1 	(obj:28)
t_x_1390                                            1 	(obj:41)
t_x_1396                                            1 	(obj:15)
t_x_1403                                            1 	(obj:9)
t_x_1404                                            1 	(obj:11)
t_x_1406                                            1 	(obj:10)
t_x_1411                                            1 	(obj:19)
t_x_1413                                            1 	(obj:18)
t_x_1416                                            1 	(obj:45)
t_x_1417                                            1 	(obj:18)
t_x_1418                                            1 	(obj:16)
t_x_1419                                            1 	(obj:60)
t_x_1420                                            1 	(obj:18)
t_x_1430                                            1 	(obj:19)
t_x_1432                                            1 	(obj:3)
t_x_1437                                            1 	(obj:3)
t_x_1443                                            1 	(obj:23)
t_x_1450                                            1 	(obj:31)
t_x_1452                                            1 	(obj:31)
t_x_1454                                            1 	(obj:2)
t_x_1459                                            1 	(obj:10)
t_x_1469                                            1 	(obj:5)
t_x_1470                                            1 	(obj:22)
t_x_1475                                            1 	(obj:37)
t_x_1478                                            1 	(obj:25)
t_x_1482                                            1 	(obj:28)
t_x_1484                                            1 	(obj:27)
t_x_1489                                            1 	(obj:49)
t_x_1494                                            1 	(obj:3)
t_x_1509                                            1 	(obj:88)
t_x_1511                                            1 	(obj:8)
t_x_1514                                            1 	(obj:2)
t_x_1515                                            1 	(obj:30)
t_x_1517                                            1 	(obj:7)
t_x_1518                                            1 	(obj:22)
t_x_1519                                            1 	(obj:19)
t_x_1522                                            1 	(obj:5)
t_x_1526                                            1 	(obj:35)
t_x_1535                                            1 	(obj:1)
t_x_1541                                            1 	(obj:3)
t_x_1546                                            1 	(obj:24)
t_x_1549                                            1 	(obj:9)
t_x_1555                                            1 	(obj:1)
t_x_1557                                            1 	(obj:10)
t_x_1562                                            1 	(obj:19)
t_x_1566                                            1 	(obj:28)
t_x_1568                                            1 	(obj:21)
t_x_1572                                            1 	(obj:7)
t_x_1574                                            1 	(obj:4)
t_x_1579                                            1 	(obj:12)
t_x_1581                                            1 	(obj:18)
t_x_1586                                            1 	(obj:40)
t_x_1589                                            1 	(obj:23)
t_x_1590                                            1 	(obj:8)
t_x_1592                                            1 	(obj:5)
t_x_1594                                            1 	(obj:22)
t_x_1597                                            1 	(obj:20)
t_x_1598                                            1 	(obj:0)
t_x_1600                                            1 	(obj:0)
t_x_1602                                            1 	(obj:10)
t_x_1603                                            1 	(obj:1)
t_x_1604                                            1 	(obj:6)
t_x_1606                                            1 	(obj:47)
t_x_1608                                            1 	(obj:18)
t_x_1609                                            1 	(obj:55)
t_x_1611                                            1 	(obj:15)
t_x_1614                                            1 	(obj:19)
t_x_1617                                            1 	(obj:3)
t_x_1619                                            1 	(obj:12)
t_x_1622                                            1 	(obj:46)
t_x_1625                                            1 	(obj:25)
t_x_1627                                            1 	(obj:15)
t_x_1628                                            1 	(obj:2)
t_x_1629                                            1 	(obj:5)
t_x_1634                                            1 	(obj:6)
t_x_1639                                            1 	(obj:2)
t_x_1642                                            1 	(obj:10)
t_x_1643                                            1 	(obj:3)
t_x_1647                                            1 	(obj:7)
t_x_1648                                            1 	(obj:2)
t_x_1651                                            1 	(obj:12)
t_x_1653                                            1 	(obj:49)
t_x_1659                                            1 	(obj:1)
t_x_1665                                            1 	(obj:20)
t_x_1666                                            1 	(obj:21)
t_x_1678                                            1 	(obj:31)
t_x_1680                                            1 	(obj:12)
t_x_1685                                            1 	(obj:33)
t_x_1693                                            1 	(obj:3)
t_x_1696                                            1 	(obj:9)
t_x_1697                                            1 	(obj:12)
t_x_1704                                            1 	(obj:30)
t_x_1705                                            1 	(obj:7)
t_x_1706                                            1 	(obj:6)
t_x_1707                                            1 	(obj:29)
t_x_1711                                            1 	(obj:5)
t_x_1714                                            1 	(obj:8)
t_x_1715                                            1 	(obj:8)
t_x_1717                                            1 	(obj:11)
t_x_1718                                            1 	(obj:17)
t_x_1720                                            1 	(obj:11)
t_x_1722                                            1 	(obj:29)
t_x_1723                                            1 	(obj:4)
t_x_1726                                            1 	(obj:7)
t_x_1729                                            1 	(obj:49)
t_x_1731                                            1 	(obj:5)
t_x_1732                                            1 	(obj:10)
t_x_1742                                            1 	(obj:2)
t_x_1745                                            1 	(obj:18)
t_x_1746                                            1 	(obj:34)
t_x_1747                                            1 	(obj:10)
t_x_1748                                            1 	(obj:55)
t_x_1749                                            1 	(obj:34)
t_x_1750                                            1 	(obj:37)
t_x_1754                                            1 	(obj:29)
t_x_1755                                            1 	(obj:5)
t_x_1756                                            1 	(obj:1)
t_x_1762                                            1 	(obj:0)
t_x_1763                                            1 	(obj:36)
t_x_1768                                            1 	(obj:6)
t_x_1769                                            1 	(obj:19)
t_x_1770                                            1 	(obj:18)
t_x_1775                                            1 	(obj:18)
t_x_1777                                            1 	(obj:21)
t_x_1779                                            1 	(obj:0)
t_x_1782                                            1 	(obj:6)
t_x_1784                                            1 	(obj:14)
t_x_1791                                            1 	(obj:3)
t_x_1794                                            1 	(obj:15)
t_x_1799                                            1 	(obj:60)
t_x_1801                                            1 	(obj:3)
t_x_1803                                            1 	(obj:37)
t_x_1804                                            1 	(obj:15)
t_x_1811                                            1 	(obj:34)
t_x_1812                                            1 	(obj:12)
t_x_1817                                            1 	(obj:37)
t_x_1822                                            1 	(obj:5)
t_x_1830                                            1 	(obj:54)
t_x_1832                                            1 	(obj:31)
t_x_1846                                            1 	(obj:19)
t_x_1847                                            1 	(obj:25)
t_x_1852                                            1 	(obj:8)
t_x_1856                                            1 	(obj:3)
t_x_1857                                            1 	(obj:17)
t_x_1859                                            1 	(obj:6)
t_x_1863                                            1 	(obj:4)
t_x_1869                                            1 	(obj:23)
t_x_1870                                            1 	(obj:10)
t_x_1872                                            1 	(obj:1)
t_x_1875                                            1 	(obj:11)
t_x_1878                                            1 	(obj:17)
t_x_1882                                            1 	(obj:36)
t_x_1887                                            1 	(obj:1)
t_x_1892                                            1 	(obj:5)
t_x_1896                                            1 	(obj:13)
t_x_1900                                            1 	(obj:0)
t_x_1901                                            1 	(obj:10)
t_x_1903                                            1 	(obj:48)
t_x_1904                                            1 	(obj:9)
t_x_1907                                            1 	(obj:34)
t_x_1912                                            1 	(obj:5)
t_x_1913                                            1 	(obj:33)
t_x_1917                                            1 	(obj:10)
t_x_1919                                            1 	(obj:27)
t_x_1925                                            1 	(obj:14)
t_x_1928                                            1 	(obj:32)
t_x_1929                                            1 	(obj:26)
t_x_1932                                            1 	(obj:11)
t_x_1938                                            1 	(obj:13)
t_x_1942                                            1 	(obj:37)
t_x_1944                                            1 	(obj:22)
t_x_1956                                            1 	(obj:11)
t_x_1957                                            1 	(obj:8)
t_x_1959                                            1 	(obj:30)
t_x_1963                                            1 	(obj:24)
t_x_1965                                            1 	(obj:7)
t_x_1971                                            1 	(obj:14)
t_x_1974                                            1 	(obj:9)
t_x_1978                                            1 	(obj:49)
t_x_1982                                            1 	(obj:39)
t_x_1985                                            1 	(obj:4)
t_x_1986                                            1 	(obj:21)
